
Gurobi 10.0.2 (linux64, Python) logging started Wed Jul 17 21:16:57 2024

Set parameter Username
Set parameter LogFile to value "gurobi.log"
Academic license - for non-commercial use only - expires 2025-07-10
Read LP format model from file RLPM.lp
Reading time = 0.01 seconds
objective: 1552 rows, 3057 columns, 6444 nonzeros
Gurobi Optimizer version 10.0.2 build v10.0.2rc0 (linux64)

CPU model: 12th Gen Intel(R) Core(TM) i7-12700F, instruction set [SSE2|AVX|AVX2]
Thread count: 10 physical cores, 20 logical processors, using up to 20 threads

Optimize a model with 1552 rows, 3057 columns and 6444 nonzeros
Model fingerprint: 0x6c5b9cd6
Variable types: 0 continuous, 3057 integer (3057 binary)
Coefficient statistics:
  Matrix range     [1e+00, 5e+04]
  Objective range  [5e+01, 1e+06]
  Bounds range     [1e+00, 1e+00]
  RHS range        [1e+00, 4e+02]
Found heuristic solution: objective 3.098758e+07
Presolve removed 1552 rows and 3057 columns
Presolve time: 0.02s
Presolve: All rows and columns removed

Explored 0 nodes (0 simplex iterations) in 0.02 seconds (0.01 work units)
Thread count was 1 (of 20 available processors)

Solution count 3: 3.08595e+07 3.08595e+07 3.09876e+07 

Optimal solution found (tolerance 1.00e-04)
Best objective 3.085953590500e+07, best bound 3.085953590500e+07, gap 0.0000%
